
  12    4
  10   10   10   10

   0   0   0   0   0   5 2 3 4 5 6 
  10  10  10  10  10   5 11 10 9 8 7 
   5  10  10  10  10   3 10 8 7 
   9  10  10  10  10   2 9 8 
  10  10  10  10  10   2 8 7 
   3  10  10  10  10   1 7 
   8  10  10  10  10   1 12
   4  10  10  10  10   1 12
   7  10  10  10  10   1 12
   6  10  10  10  10   1 12
  10  10  10  10  10   1 12
   0   0   0   0   0   0 
